Start evaluate stage for setting _10000_5_4q_mnl_A1000...

Evaluating using MNL with setting tag _10000_5_4q_mnl_A1000.
 Results stored at /export/storage_covidvaccine/Result/MNL_partial/M5_K10000_4q/HighSchools/

The number of HighSchools opened: 5035
Set parameter ServerPassword
Set parameter CSQueueTimeout to value 120
Set parameter CSIdleTimeout to value 60
Set parameter ServerTimeout to value 10
Set parameter TokenServer to value "164.67.163.231"
Set parameter MIPFocus to value 3
Set parameter MIPGap to value 0.005
Set parameter TimeLimit to value 21600
Gurobi Optimizer version 10.0.1 build v10.0.1rc0 (linux64)

CPU model: AMD EPYC 7742 64-Core Processor, instruction set [SSE2|AVX|AVX2]
Thread count: 128 physical cores, 256 logical processors, using up to 32 threads

Optimize a model with 85812375 rows, 42903525 columns and 85845904 nonzeros
Model fingerprint: 0x77432c77
Coefficient statistics:
  Matrix range     [3e-01, 7e+03]
  Objective range  [3e-01, 7e+03]
  Bounds range     [1e+00, 1e+00]
  RHS range        [1e+00, 1e+04]
Presolve removed 294 rows and 0 columns (presolve time = 13s) ...
Presolve removed 85811589 rows and 42864671 columns (presolve time = 21s) ...
Presolve removed 85811589 rows and 42893588 columns (presolve time = 25s) ...
Presolve removed 85811589 rows and 42902739 columns (presolve time = 31s) ...
Presolve removed 85812375 rows and 42903525 columns (presolve time = 36s) ...
Presolve removed 85812375 rows and 42903525 columns
Presolve time: 41.81s
Presolve: All rows and columns removed
Iteration    Objective       Primal Inf.    Dual Inf.      Time
       0    3.4767500e+07   0.000000e+00   0.000000e+00     83s

Solved in 0 iterations and 83.12 seconds (51.24 work units)
Optimal objective  3.476750025e+07
Evaluation finished!

Evaluation with leftover fulfillments...

========================================================================================================================
Start filling the leftover demands to their 2 choice

Total demand fulfilled in previous round 34.7675, with leftover unfulfilled demand: 1.68832;    Resulting in a total of 36.45582, but b/c consideration set, the maximum possible demand in coming round is 1.16174;    Try to fill them with 4249 sites that has leftover capacity 15.5804

Set parameter MIPFocus to value 3
Set parameter MIPGap to value 0.005
Set parameter TimeLimit to value 21600
Gurobi Optimizer version 10.0.1 build v10.0.1rc0 (linux64)

CPU model: AMD EPYC 7742 64-Core Processor, instruction set [SSE2|AVX|AVX2]
Thread count: 128 physical cores, 256 logical processors, using up to 32 threads

Optimize a model with 85812375 rows, 42903525 columns and 85809445 nonzeros
Model fingerprint: 0x1bc197e3
Coefficient statistics:
  Matrix range     [8e-02, 8e+03]
  Objective range  [8e-02, 8e+03]
  Bounds range     [1e+00, 1e+00]
  RHS range        [1e+00, 1e+04]
Presolve removed 4044 rows and 0 columns (presolve time = 14s) ...
Presolve removed 85812156 rows and 42901130 columns (presolve time = 21s) ...
Presolve removed 85812156 rows and 42902770 columns (presolve time = 26s) ...
Presolve removed 85812156 rows and 42903306 columns (presolve time = 32s) ...
Presolve removed 85812375 rows and 42903525 columns (presolve time = 36s) ...
Presolve removed 85812375 rows and 42903525 columns
Presolve time: 40.39s
Presolve: All rows and columns removed
Iteration    Objective       Primal Inf.    Dual Inf.      Time
       0    6.6494880e+05   0.000000e+00   0.000000e+00     78s

Solved in 0 iterations and 77.83 seconds (50.16 work units)
Optimal objective  6.649488048e+05
========================================================================================================================
Start filling the leftover demands to their 3 choice

Total demand fulfilled in previous round 0.66495, with leftover unfulfilled demand: 0.49679;    Resulting in a total of 1.16174, but b/c consideration set, the maximum possible demand in coming round is 0.06539;    Try to fill them with 3997 sites that has leftover capacity 14.91495

Set parameter MIPFocus to value 3
Set parameter MIPGap to value 0.005
Set parameter TimeLimit to value 21600
Gurobi Optimizer version 10.0.1 build v10.0.1rc0 (linux64)

CPU model: AMD EPYC 7742 64-Core Processor, instruction set [SSE2|AVX|AVX2]
Thread count: 128 physical cores, 256 logical processors, using up to 32 threads

Optimize a model with 85812375 rows, 42903525 columns and 85807379 nonzeros
Model fingerprint: 0xf35076fa
Coefficient statistics:
  Matrix range     [1e-01, 3e+03]
  Objective range  [1e-01, 3e+03]
  Bounds range     [1e+00, 1e+00]
  RHS range        [1e+00, 1e+04]
Presolve removed 5090 rows and 0 columns (presolve time = 12s) ...
Presolve removed 85812360 rows and 42903196 columns (presolve time = 20s) ...
Presolve removed 85812360 rows and 42903510 columns (presolve time = 28s) ...
Presolve removed 85812360 rows and 42903510 columns (presolve time = 30s) ...
Presolve removed 85812375 rows and 42903525 columns
Presolve time: 39.45s
Presolve: All rows and columns removed
Iteration    Objective       Primal Inf.    Dual Inf.      Time
       0    5.3564621e+04   0.000000e+00   0.000000e+00     86s

Solved in 0 iterations and 85.70 seconds (50.18 work units)
Optimal objective  5.356462071e+04
Finished evaluate stage for setting _10000_5_4q_mnl_A1000!

